NAME: bip_20_2
TYPE: TSP
COMMENT: bip_20_2
DIMENSION: 20
EDGE_WEIGHT_TYPE: EUC_2D
NODE_COORD_SECTION
1 50 69
2 50 40
3 37 83
4 32 31
5 32 19
6 77 18
7 63 73
8 5 16
9 16 83
10 28 52
11 455 465
12 482 424
13 455 489
14 496 470
15 496 495
16 415 426
17 451 490
18 443 496
19 455 413
20 405 495
